letting grid be [
    [ 1, 1, 2, 3, 3, 4],
    [ 5, 5, 2, 6, 7, 4],
    [ 8, 9, 9, 6, 7,10],
    [ 8,11,11,12,12,10],
    [13,14,14,15,16,17],
    [13,18,18,15,16,17]
]

letting hints be [7,5,7,7,9,10,3,4,11,7,6,8,7,4,3,11,7,10]


